NAME          BLANK   
ROWS
 N  OBJROW
 L  R0000000
COLUMNS
    C0000000  OBJROW     -312.         R0000000  823.        
    C0000001  OBJROW     -696.         R0000000  24.         
    C0000002  OBJROW     -214.         R0000000  857.        
    C0000003  OBJROW     -915.         R0000000  626.        
    C0000004  OBJROW     -510.         R0000000  734.        
    C0000005  OBJROW     -447.         R0000000  165.        
    C0000006  OBJROW     -410.         R0000000  876.        
    C0000007  OBJROW     -915.         R0000000  373.        
    C0000008  OBJROW     -541.         R0000000  764.        
    C0000009  OBJROW     -660.         R0000000  744.        
RHS
    RHS       R0000000  13852.      
BOUNDS
 BV BOUND     C0000000  1.          
 BV BOUND     C0000001  1.          
 BV BOUND     C0000002  1.          
 BV BOUND     C0000003  1.          
 BV BOUND     C0000004  1.          
 BV BOUND     C0000005  1.          
 BV BOUND     C0000006  1.          
 BV BOUND     C0000007  1.          
 BV BOUND     C0000008  1.          
 BV BOUND     C0000009  1.          
ENDATA
